Sample ID,Test Number,Minor Principal Stress,Major Principal Stress
BH-1,1,100,400
BH-1,2,200,600
BH-1,3,400,900
BH-2,1,150,450
BH-2,2,250,650
BH-2,3,450,950
